certificates/rado_a13_c139_N31.cnf
c Rad2 upper bound instance: x1 + 13*x2 - x3 = 139, interval [1,31]
p cnf 31 146
1 5 11 0
-1 -5 -11 0
1 12 18 0
-1 -12 -18 0
1 13 31 0
-1 -13 -31 0
2 6 11 0
-2 -6 -11 0
2 12 19 0
-2 -12 -19 0
3 7 11 0
-3 -7 -11 0
3 12 20 0
-3 -12 -20 0
4 8 11 0
-4 -8 -11 0
4 12 21 0
-4 -12 -21 0
5 9 11 0
-5 -9 -11 0
5 12 22 0
-5 -12 -22 0
6 10 11 0
-6 -10 -11 0
6 12 23 0
-6 -12 -23 0
7 11 0
-7 -11 0
7 12 24 0
-7 -12 -24 0
8 11 12 0
-8 -11 -12 0
8 12 25 0
-8 -12 -25 0
9 11 13 0
-9 -11 -13 0
9 12 26 0
-9 -12 -26 0
1 10 0
-1 -10 0
10 11 14 0
-10 -11 -14 0
10 12 27 0
-10 -12 -27 0
2 10 11 0
-2 -10 -11 0
11 15 0
-11 -15 0
11 12 28 0
-11 -12 -28 0
3 10 12 0
-3 -10 -12 0
11 12 16 0
-11 -12 -16 0
12 29 0
-12 -29 0
4 10 13 0
-4 -10 -13 0
11 13 17 0
-11 -13 -17 0
12 13 30 0
-12 -13 -30 0
5 10 14 0
-5 -10 -14 0
11 14 18 0
-11 -14 -18 0
12 14 31 0
-12 -14 -31 0
6 10 15 0
-6 -10 -15 0
11 15 19 0
-11 -15 -19 0
7 10 16 0
-7 -10 -16 0
11 16 20 0
-11 -16 -20 0
8 10 17 0
-8 -10 -17 0
11 17 21 0
-11 -17 -21 0
9 10 18 0
-9 -10 -18 0
11 18 22 0
-11 -18 -22 0
10 19 0
-10 -19 0
11 19 23 0
-11 -19 -23 0
10 11 20 0
-10 -11 -20 0
11 20 24 0
-11 -20 -24 0
10 12 21 0
-10 -12 -21 0
11 21 25 0
-11 -21 -25 0
10 13 22 0
-10 -13 -22 0
11 22 26 0
-11 -22 -26 0
1 9 23 0
-1 -9 -23 0
10 14 23 0
-10 -14 -23 0
11 23 27 0
-11 -23 -27 0
2 9 24 0
-2 -9 -24 0
10 15 24 0
-10 -15 -24 0
11 24 28 0
-11 -24 -28 0
3 9 25 0
-3 -9 -25 0
10 16 25 0
-10 -16 -25 0
11 25 29 0
-11 -25 -29 0
4 9 26 0
-4 -9 -26 0
10 17 26 0
-10 -17 -26 0
11 26 30 0
-11 -26 -30 0
5 9 27 0
-5 -9 -27 0
10 18 27 0
-10 -18 -27 0
11 27 31 0
-11 -27 -31 0
6 9 28 0
-6 -9 -28 0
10 19 28 0
-10 -19 -28 0
7 9 29 0
-7 -9 -29 0
10 20 29 0
-10 -20 -29 0
8 9 30 0
-8 -9 -30 0
10 21 30 0
-10 -21 -30 0
9 31 0
-9 -31 0
10 22 31 0
-10 -22 -31 0
