certificates/rado_a13_c139_N31.drat
12 -30 -31 0
-30 -31 0
d 12 -30 -31 0
29 -8 0
-31 0
9 0
-29 30 0
30 0
-8 0
-12 0
29 0
14 0
11 0
25 0
-7 0
-18 0
-10 0
-15 0
0
